Route #1: 93 75
Route #2: 32 33 53 73 95 24
Route #3: 74 13 4
Route #4: 81 51 83
Route #5: 25 65 78 42 28
Route #6: 34 64 96 48 26 47 38
Route #7: 21 56 94 80
Route #8: 71 62 99 98 89
Route #9: 92 9 86
Route #10: 69 16 55 76
Route #11: 30 85 11 79
Route #12: 40 67 88 44
Route #13: 35 46 31
Route #14: 19 97 27
Route #15: 57 72 36 29 43 45 2 7
Route #16: 59 60 82
Route #17: 14 49 6 37 87
Route #18: 66 84 90 68
Route #19: 100 61 23
Route #20: 63 77 3
Route #21: 17 8
Route #22: 58 12 5
Route #23: 1 70 54
Route #24: 39 10 18
Route #25: 50 91 52
Route #26: 15 22 41 20
Cost 27591.0000
Time 16.0007